32	0

0	1	2
7	1	3
4	1	4
10	1	5
3	1	6
7	1	7
6	1	8
6	1	9
5	1	10
6	1	11
1	1	12
9	1	13
2	1	14
10	1	15
4	1	16
6	1	17
9	1	18
8	1	19
3	1	20
3	1	21
9	1	22
6	1	23
8	1	24
6	1	25
7	1	26
9	1	27
8	1	28
5	1	29
6	1	30
4	1	31
5	1	32
0	0
